SDVRP instances/p11/p11_110_tsplib0_split0.vrp
NAME:.\SDVRP_split
BEST_KNOWN: 0
COMMENT: 0
DIMENSION: 423
CAPACITY: 200
EDGE_WEIGHT_FORMAT: FUNCTION
EDGE_WEIGHT_TYPE: EXACT_2D
NODE_COORD_SECTION
1 0.00000 0.00000
2 15 -44
3 15 -44
4 15 -44
5 15 -44
6 15 -44
7 15 -42
8 15 -42
9 15 -42
10 15 -42
11 15 -42
12 21 -40
13 21 -40
14 21 -40
15 22 -40
16 22 -40
17 21 -38
18 21 -38
19 21 -38
20 21 -38
21 21 -38
22 22 -36
23 22 -36
24 22 -36
25 22 -36
26 22 -36
27 24 -36
28 36 -36
29 36 -36
30 25 -38
31 25 -38
32 25 -38
33 24 -39
34 25 -40
35 25 -40
36 25 -40
37 25 -40
38 37 -39
39 37 -39
40 37 -39
41 37 -39
42 37 -39
43 30 -40
44 29 -42
45 29 -42
46 26 -42
47 26 -42
48 26 -42
49 63 -39
50 63 -39
51 63 -39
52 63 -39
53 63 -37
54 63 -37
55 14 -9
56 14 -9
57 66 -39
58 66 -39
59 66 -39
60 66 -39
61 66 -39
62 66 -35
63 66 -35
64 66 -32
65 66 -32
66 68 -42
67 68 -42
68 68 -42
69 68 -36
70 68 -36
71 68 -36
72 69 -42
73 69 -42
74 69 -40
75 69 -40
76 69 -40
77 69 -40
78 69 -34
79 69 -34
80 69 -34
81 69 -34
82 72 -42
83 72 -38
84 72 -38
85 72 -38
86 72 -38
87 80 -30
88 80 -30
89 74 -42
90 74 -42
91 74 -40
92 74 -40
93 74 -40
94 74 -40
95 74 -40
96 74 -36
97 74 -36
98 74 -36
99 74 -36
100 75 -44
101 75 -44
102 75 -44
103 75 -44
104 77 -40
105 77 -40
106 77 -40
107 75 -37
108 75 -37
109 75 -37
110 75 -37
111 75 -37
112 77 -38
113 76 -4
114 76 -4
115 76 -4
116 76 -4
117 76 -1
118 76 1
119 75 10
120 75 10
121 75 10
122 75 10
123 79 -2
124 79 -2
125 79 -2
126 79 1
127 79 1
128 79 7
129 79 7
130 79 7
131 82 -3
132 82 -3
133 82 -3
134 82 7
135 82 7
136 82 7
137 82 7
138 82 7
139 84 -3
140 84 -3
141 84 -3
142 84 -3
143 84 -1
144 84 3
145 84 3
146 84 3
147 84 3
148 84 3
149 86 -3
150 86 -3
151 86 -3
152 86 -3
153 86 -3
154 89 1
155 89 1
156 89 1
157 89 5
158 89 5
159 89 5
160 73 35
161 73 35
162 73 35
163 73 38
164 73 38
165 75 36
166 75 36
167 75 36
168 75 36
169 75 36
170 75 40
171 75 40
172 75 40
173 75 40
174 75 44
175 75 44
176 75 44
177 75 44
178 77 35
179 77 35
180 77 35
181 77 35
182 77 41
183 77 41
184 77 41
185 80 32
186 80 32
187 80 32
188 80 32
189 80 32
190 80 43
191 80 43
192 80 43
193 80 43
194 83 37
195 83 37
196 83 37
197 83 37
198 83 37
199 83 39
200 83 39
201 83 39
202 83 44
203 83 44
204 83 44
205 83 44
206 84 41
207 84 41
208 84 41
209 84 41
210 85 35
211 85 35
212 85 35
213 85 35
214 89 44
215 27 38
216 27 38
217 27 38
218 27 38
219 27 38
220 40 35
221 40 35
222 25 40
223 25 40
224 25 40
225 25 40
226 25 40
227 25 40
228 25 42
229 25 42
230 25 42
231 25 42
232 25 42
233 34 41
234 34 41
235 34 41
236 34 41
237 34 41
238 34 41
239 36 44
240 36 44
241 36 44
242 36 44
243 36 44
244 36 38
245 36 38
246 36 38
247 36 38
248 36 38
249 36 42
250 36 42
251 36 42
252 36 42
253 36 42
254 36 42
255 36 44
256 38 38
257 38 38
258 38 38
259 38 38
260 40 40
261 40 40
262 40 43
263 40 43
264 40 43
265 40 43
266 44 41
267 44 41
268 44 45
269 44 45
270 44 45
271 44 45
272 0 -10
273 0 -10
274 0 -10
275 0 -5
276 0 -5
277 0 -5
278 0 -5
279 8 -15
280 8 -15
281 8 -15
282 7 -10
283 7 -10
284 7 -10
285 6 -7
286 6 -7
287 6 -7
288 6 -7
289 6 -7
290 6 -7
291 4 -5
292 4 -5
293 4 -5
294 4 -5
295 5 -3
296 5 -3
297 5 -3
298 5 -3
299 5 -3
300 5 -3
301 1 -3
302 1 -3
303 1 -3
304 1 -3
305 8 -5
306 8 -5
307 8 -5
308 8 -5
309 8 -5
310 11 -6
311 11 -6
312 10 -5
313 10 -5
314 10 -5
315 10 -5
316 8 -4
317 8 -4
318 10 -1
319 10 -1
320 10 -1
321 12 -1
322 12 -1
323 12 -1
324 12 -1
325 12 -1
326 6 0
327 6 0
328 6 0
329 10 0
330 10 0
331 10 0
332 10 0
333 15 0
334 15 0
335 15 0
336 15 0
337 20 10
338 20 10
339 20 10
340 20 10
341 20 10
342 10 5
343 10 5
344 10 5
345 10 5
346 12 6
347 12 6
348 8 4
349 8 4
350 8 4
351 6 3
352 6 3
353 6 3
354 6 3
355 10 10
356 10 10
357 10 10
358 10 10
359 8 8
360 8 8
361 8 8
362 8 8
363 8 8
364 8 8
365 4 5
366 4 5
367 4 5
368 4 5
369 4 5
370 5 6
371 5 6
372 5 6
373 6 9
374 6 9
375 18 -12
376 18 -12
377 23 -7
378 23 -7
379 23 -7
380 23 -7
381 20 5
382 20 5
383 20 5
384 20 5
385 20 5
386 3 -5
387 3 -5
388 3 -5
389 3 -5
390 3 -5
391 5 -9
392 5 -9
393 5 -9
394 8 -14
395 15 -8
396 15 -8
397 15 -8
398 15 -8
399 20 1
400 20 1
401 20 1
402 15 7
403 15 7
404 15 7
405 15 7
406 15 7
407 6 -12
408 6 -12
409 6 -12
410 6 -12
411 15 -10
412 15 -10
413 15 -10
414 15 -10
415 -5 -5
416 -5 -5
417 -5 -5
418 -5 -5
419 -5 5
420 -5 5
421 -5 5
422 -5 5
423 -5 5
DEMAND_SECTION
1 0
2 10
3 2
4 2
5 2
6 1
7 2
8 2
9 2
10 2
11 1
12 2
13 2
14 2
15 10
16 2
17 10
18 2
19 2
20 2
21 2
22 10
23 2
24 2
25 2
26 1
27 10
28 2
29 1
30 2
31 2
32 1
33 2
34 10
35 2
36 2
37 2
38 2
39 2
40 2
41 2
42 1
43 10
44 10
45 1
46 10
47 2
48 2
49 2
50 2
51 2
52 1
53 2
54 1
55 10
56 1
57 10
58 2
59 2
60 2
61 1
62 10
63 1
64 2
65 1
66 10
67 2
68 1
69 10
70 2
71 1
72 10
73 2
74 10
75 2
76 2
77 2
78 10
79 2
80 2
81 1
82 2
83 10
84 2
85 2
86 1
87 2
88 2
89 2
90 1
91 10
92 2
93 2
94 2
95 1
96 10
97 2
98 2
99 2
100 10
101 2
102 2
103 2
104 2
105 2
106 1
107 10
108 2
109 2
110 2
111 1
112 10
113 10
114 2
115 2
116 2
117 10
118 10
119 10
120 2
121 2
122 2
123 2
124 2
125 1
126 2
127 1
128 10
129 2
130 1
131 10
132 2
133 2
134 10
135 2
136 2
137 2
138 1
139 2
140 2
141 2
142 1
143 10
144 2
145 2
146 2
147 2
148 1
149 10
150 2
151 2
152 2
153 1
154 10
155 2
156 1
157 10
158 2
159 1
160 10
161 2
162 1
163 2
164 1
165 10
166 2
167 2
168 2
169 2
170 10
171 2
172 2
173 1
174 10
175 2
176 2
177 1
178 2
179 2
180 2
181 1
182 10
183 2
184 2
185 2
186 2
187 2
188 2
189 1
190 2
191 2
192 2
193 2
194 10
195 2
196 2
197 2
198 1
199 2
200 2
201 2
202 2
203 2
204 2
205 1
206 2
207 2
208 2
209 1
210 2
211 2
212 2
213 2
214 10
215 10
216 2
217 2
218 2
219 1
220 2
221 1
222 10
223 2
224 2
225 2
226 2
227 1
228 10
229 2
230 2
231 2
232 1
233 10
234 2
235 2
236 2
237 2
238 1
239 10
240 2
241 2
242 2
243 2
244 10
245 2
246 2
247 2
248 1
249 10
250 2
251 2
252 2
253 2
254 1
255 2
256 2
257 2
258 2
259 1
260 10
261 2
262 10
263 2
264 2
265 1
266 10
267 2
268 10
269 2
270 2
271 2
272 10
273 2
274 1
275 2
276 2
277 2
278 1
279 10
280 2
281 2
282 10
283 2
284 1
285 10
286 2
287 2
288 2
289 2
290 1
291 10
292 2
293 2
294 2
295 10
296 2
297 2
298 2
299 2
300 1
301 10
302 2
303 2
304 2
305 10
306 2
307 2
308 2
309 1
310 2
311 2
312 10
313 2
314 2
315 2
316 10
317 2
318 2
319 2
320 1
321 10
322 2
323 2
324 2
325 2
326 10
327 2
328 2
329 10
330 2
331 2
332 2
333 10
334 2
335 2
336 1
337 2
338 2
339 2
340 2
341 1
342 10
343 2
344 2
345 1
346 2
347 1
348 10
349 2
350 2
351 10
352 2
353 2
354 2
355 10
356 2
357 2
358 1
359 10
360 2
361 2
362 2
363 2
364 1
365 2
366 2
367 2
368 2
369 1
370 2
371 2
372 2
373 2
374 1
375 10
376 2
377 2
378 2
379 2
380 1
381 10
382 2
383 2
384 2
385 2
386 10
387 2
388 2
389 2
390 2
391 10
392 2
393 1
394 2
395 2
396 2
397 2
398 1
399 10
400 2
401 2
402 2
403 2
404 2
405 2
406 1
407 2
408 2
409 2
410 2
411 10
412 2
413 2
414 2
415 10
416 2
417 2
418 1
419 10
420 2
421 2
422 2
423 2
DEPOT_SECTION
1
-1
EOF