SDVRP instances/p11/p11_110_tsplib0_split0.sol
422 -53 52 49 48 51 50 59 58 57 56 60 74 73 76 75 67 66 65 71 72 81 101 99 102 100 89 88 93 92 91 94 90 104 105 103 111 106 109 107 108 110 96 97 98 95 83 82 85 84 68 69 70 61 62 396 394 397 395 -63 64 78 80 79 77 86 87 115 113 114 112 116 117 125 126 124 122 123 131 132 130 138 141 139 140 142 150 148 152 151 149 154 155 153 157 158 156 144 146 147 145 143 137 135 133 136 134 128 129 127 118 121 120 119 343 342 -277 275 276 274 388 389 387 386 385 290 293 292 291 296 295 299 298 294 297 326 327 325 329 331 328 330 334 335 333 332 324 321 323 320 322 318 317 319 315 316 286 289 285 288 284 287 392 390 391 272 273 271 417 414 415 416 -283 281 282 393 23 25 24 21 22 26 31 29 30 28 27 40 38 41 39 37 42 44 43 47 46 45 35 33 36 34 32 20 16 18 19 17 14 15 11 13 12 4 1 3 2 5 8 6 9 7 10 279 278 280 406 409 408 407 -301 302 303 300 304 307 308 305 306 311 313 314 312 309 310 54 55 411 410 412 413 374 375 379 377 378 376 399 400 398 380 384 382 381 383 356 357 354 355 361 360 359 363 362 358 347 349 348 350 352 351 353 -341 344 346 345 401 404 402 405 403 340 338 337 339 336 159 161 160 166 165 167 168 164 179 180 177 178 184 185 188 187 186 210 209 212 211 193 195 197 196 194 198 200 199 206 208 207 205 213 201 202 204 203 190 191 189 192 176 175 174 173 182 181 183 170 169 172 171 163 162 370 364 365 367 368 366 -369 371 245 247 243 244 246 258 256 255 257 220 219 260 259 266 265 270 268 267 269 264 262 261 263 240 241 242 238 254 239 250 252 249 253 251 248 233 232 236 234 235 237 231 229 227 228 230 225 222 221 224 226 223 215 216 214 217 218 372 373 -420 422 418 419 421 0 





OBJ=
1064.707
BEST_KNOWN=
0.000